(set-logic QF_RDL)
(declare-fun x0 () Real)
(declare-fun x1 () Real)
(declare-fun x2 () Real)
(declare-fun x3 () Real)
(declare-fun x4 () Real)
(declare-fun x5 () Real)
(declare-fun x6 () Real)
(declare-fun x7 () Real)
(assert (let ((.def_0 (< (/ 1 2) x7))) (let ((.def_1 (< (/ 1 2) x6))) (let ((.def_2 (< (/ 1 2) x5))) (let ((.def_3 (< (/ 1 2) x4))) (let ((.def_4 (< (/ 1 2) x3))) (let ((.def_5 (< (/ 1 2) x2))) (let ((.def_6 (< (/ 1 2) x1))) (let ((.def_7 (< (/ 1 2) x0))) (let ((.def_8 (and .def_7 .def_6 .def_5 .def_4 .def_3 .def_2 .def_1 .def_0))) .def_8))))))))))
(check-sat)
